(set-option :produce-models true)
(set-logic QF_UF)
(declare-fun p9() Bool)
(declare-fun p18() Bool)
(declare-fun p7() Bool)
(declare-fun p11() Bool)
(declare-fun p10() Bool)
(declare-fun p6() Bool)
(declare-fun p13() Bool)
(declare-fun p15() Bool)
(declare-fun p14() Bool)
(declare-fun p3() Bool)
(declare-fun p8() Bool)
(declare-fun p19() Bool)
(declare-fun p17() Bool)
(declare-fun p16() Bool)
(declare-fun p4() Bool)
(declare-fun p2() Bool)
(declare-fun p0() Bool)
(declare-fun p1() Bool)
(declare-fun p12() Bool)
(declare-fun p5() Bool)
(assert
(and (or (not p9) p18 (not p7)) (or (not p11) (not p10) p9) (or (not p6) (not p13) p15) (or p18 p11 p13) (or p10 p14 p3) (or p6 (not p7) (not p8)) (or p19 p17 p11) (or p6 p16 p10) (or p4 p2 p11) (or p9 (not p15) p2) (or (not p0) p1 (not p7)) (or p13 (not p18) (not p1)) (or (not p2) (not p3) (not p13)) (or p19 (not p12) (not p4)) (or p19 p6 p1) (or (not p13) (not p1) (not p1)) (or p1 p5 p0) (or p11 p14 (not p19)) (or p8 (not p4) p12) (or p5 (not p3) p17) (or p1 p6 p3) (or p4 (not p2) (not p18)) (or p18 (not p17) p10) (or p12 (not p10) p14) (or p5 p2 (not p18)) (or p0 p12 p10) (or p5 (not p1) (not p17)) (or (not p11) p4 (not p15)) (or (not p9) p11 p19) (or p14 (not p19) p15) (or (not p17) (not p8) p12) (or (not p1) p13 (not p18)) (or (not p16) p6 (not p0)) (or p12 (not p19) (not p7)) (or p6 p9 (not p18)) (or p17 p14 (not p16)) (or (not p13) (not p3) (not p4)) (or p2 p5 (not p5)) (or (not p7) (not p6) p10) (or p9 (not p0) (not p5)) (or (not p19) p10 p12) (or p10 (not p7) (not p9)) (or (not p1) (not p10) (not p6)) (or (not p19) (not p4) p17) (or p17 (not p6) p7) (or (not p1) (not p18) (not p6)) (or (not p12) p19 (not p11)) (or (not p13) (not p18) p7) (or p8 (not p19) p2) (or p2 p6 p4) (or p0 (not p6) (not p9)) (or p5 (not p14) (not p4)) (or p15 p5 p18) (or (not p14) p17 p16) (or p6 (not p17) p19) (or p14 (not p10) p15) (or p8 p12 (not p12)) (or (not p17) p17 (not p6)) (or (not p7) (not p15) p6) (or p10 (not p8) p9) (or (not p5) (not p12) (not p15)) (or p1 p19 p11) (or p6 p19 (not p16)) (or (not p14) (not p7) (not p8)) (or p15 p13 p18) (or p9 p13 (not p12)) (or p18 p15 (not p14)) (or p13 p16 (not p10)) (or (not p5) p0 p1) (or p3 (not p16) (not p11)) (or p3 p9 (not p1)) (or p14 (not p19) (not p15)) (or (not p17) p8 p2) (or p6 p11 p5) (or (not p14) p0 p1) (or (not p7) (not p8) (not p11)) (or (not p14) (not p8) p0) (or p19 p5 (not p12)) (or p16 (not p5) p15) (or (not p18) p1 p7) (or p17 (not p2) p3) (or p12 (not p9) (not p3)) (or p16 (not p4) (not p18)) (or (not p15) (not p9) p15) (or (not p2) p18 (not p15)) (or (not p13) p4 p0) (or (not p9) (not p1) p8))
)
(check-sat)
(get-model)
